
Gurobi 12.0.2 (win64) logging started Sat Feb  7 07:31:34 2026

Set parameter LogFile to value "gurobi_stats_logs\m20n10\sample_data_13_size_10_MILP.log"
Set parameter TimeLimit to value 0
Gurobi Optimizer version 12.0.2 build v12.0.2rc0 (win64 - Windows 11+.0 (26200.2))

CPU model: AMD Ryzen 7 8845H w/ Radeon 780M Graphics, instruction set [SSE2|AVX|AVX2|AVX512]
Thread count: 8 physical cores, 16 logical processors, using up to 16 threads

Non-default parameters:
TimeLimit  0

Optimize a model with 135837 rows, 82964 columns and 1225351 nonzeros
Model fingerprint: 0x96e5bfc6
Variable types: 62484 continuous, 20480 integer (20480 binary)
Coefficient statistics:
  Matrix range     [1e-02, 3e+00]
  Objective range  [7e-03, 9e-02]
  Bounds range     [1e+00, 1e+00]
  RHS range        [6e-02, 3e+00]

Explored 0 nodes (0 simplex iterations) in 0.01 seconds (0.00 work units)
Thread count was 1 (of 16 available processors)

Solution count 0

Time limit reached
Best objective -, best bound -, gap -

Gurobi 12.0.2 (win64) logging started Sat Feb  7 07:38:56 2026

Set parameter LogFile to value "gurobi_stats_logs\m20n10\sample_data_13_size_10_MILP.log"
Set parameter TimeLimit to value 0
Gurobi Optimizer version 12.0.2 build v12.0.2rc0 (win64 - Windows 11+.0 (26200.2))

CPU model: AMD Ryzen 7 8845H w/ Radeon 780M Graphics, instruction set [SSE2|AVX|AVX2|AVX512]
Thread count: 8 physical cores, 16 logical processors, using up to 16 threads

Non-default parameters:
TimeLimit  0

Optimize a model with 135837 rows, 82964 columns and 1225351 nonzeros
Model fingerprint: 0x96e5bfc6
Variable types: 62484 continuous, 20480 integer (20480 binary)
Coefficient statistics:
  Matrix range     [1e-02, 3e+00]
  Objective range  [7e-03, 9e-02]
  Bounds range     [1e+00, 1e+00]
  RHS range        [6e-02, 3e+00]

Explored 0 nodes (0 simplex iterations) in 0.01 seconds (0.00 work units)
Thread count was 1 (of 16 available processors)

Solution count 0

Time limit reached
Best objective -, best bound -, gap -
